[2026-03-24T00:36:39.195Z] Pipeline "set_set_set_s010_g007" → 2026_03_24_00_36_38_set_set_set_s010_g007_max.sol
Set parameter WLSAccessID
Set parameter WLSSecret
Set parameter LicenseID to value 2792458
Set parameter LogFile to value "gurobi.log"
Using license file /root/gurobi.lic
Academic license 2792458 - for non-commercial use only - registered to an___@studenti.unipg.it

Gurobi Optimizer version 13.0.1 build v13.0.1rc0 (linux64 - "Ubuntu 24.04.4 LTS")
Copyright (c) 2026, Gurobi Optimization, LLC

Warning: Duplicate section found (read 'binary') - Is a variable name equal to an LP file format keyword?
Warning: Duplicate section found (read 'binary') - Is a variable name equal to an LP file format keyword?
Warning: Duplicate section found (read 'binary') - Is a variable name equal to an LP file format keyword?
Warning: Duplicate section found (read 'binary') - Is a variable name equal to an LP file format keyword?
Warning: Duplicate section found (read 'binary') - Is a variable name equal to an LP file format keyword?
Warning: Duplicate section found (read 'binary') - Is a variable name equal to an LP file format keyword?
Warning: Duplicate section found (read 'binary') - Is a variable name equal to an LP file format keyword?
Warning: Duplicate section found (read 'binary') - Is a variable name equal to an LP file format keyword?
Warning: Duplicate section found (read 'binary') - Is a variable name equal to an LP file format keyword?
Warning: Duplicate section found (read 'binary') - Is a variable name equal to an LP file format keyword?
Warning: Further warnings of this type will be omitted.
Read LP format model from file /root/bgw/data/uploads/2026_03_24_00_36_38_set_set_set_s010_g007_max.lp
Reading time = 0.00 seconds
: 1164 rows, 168 columns, 3461 nonzeros

Using Gurobi shared library /opt/gurobi1301/linux64/lib/libgurobi.so.13.0.1

CPU model: AMD EPYC-Genoa Processor, instruction set [SSE2|AVX|AVX2|AVX512]
Thread count: 16 physical cores, 16 logical processors, using up to 16 threads

Academic license 2792458 - for non-commercial use only - registered to an___@studenti.unipg.it
Optimize a model with 1164 rows, 168 columns and 3461 nonzeros (Max)
Model fingerprint: 0x93146c6c
Model has 11 linear objective coefficients
Variable types: 26 continuous, 142 integer (142 binary)
Coefficient statistics:
  Matrix range     [1e+00, 2e+01]
  Objective range  [1e+00, 1e+00]
  Bounds range     [1e+00, 1e+00]
  RHS range        [1e+00, 2e+01]

Found heuristic solution: objective 11.0000000
Presolve removed 221 rows and 43 columns
Presolve time: 0.01s
Presolved: 943 rows, 125 columns, 2913 nonzeros
Variable types: 0 continuous, 125 integer (118 binary)
Found heuristic solution: objective 20.0000000

Root relaxation: objective 5.000000e+01, 117 iterations, 0.00 seconds (0.00 work units)

    Nodes    |    Current Node    |     Objective Bounds      |     Work
 Expl Unexpl |  Obj  Depth IntInf | Incumbent    BestBd   Gap | It/Node Time

     0     0   50.00000    0   24   20.00000   50.00000   150%     -    0s
H    0     0                      23.0000000   50.00000   117%     -    0s
H    0     0                      30.0000000   50.00000  66.7%     -    0s
     0     0   50.00000    0   18   30.00000   50.00000  66.7%     -    0s
     0     0   50.00000    0   24   30.00000   50.00000  66.7%     -    0s
     0     0   50.00000    0   24   30.00000   50.00000  66.7%     -    0s
     0     0   50.00000    0   24   30.00000   50.00000  66.7%     -    0s
     0     0   50.00000    0   24   30.00000   50.00000  66.7%     -    0s
     0     0   50.00000    0   24   30.00000   50.00000  66.7%     -    0s
     0     0   50.00000    0   24   30.00000   50.00000  66.7%     -    0s
     0     0   50.00000    0   23   30.00000   50.00000  66.7%     -    0s
     0     0   50.00000    0   23   30.00000   50.00000  66.7%     -    0s
     0     0   50.00000    0   25   30.00000   50.00000  66.7%     -    0s
     0     0   50.00000    0   17   30.00000   50.00000  66.7%     -    0s
     0     0   50.00000    0   26   30.00000   50.00000  66.7%     -    0s
     0     0   49.71154    0   27   30.00000   49.71154  65.7%     -    0s
     0     0   49.71154    0   16   30.00000   49.71154  65.7%     -    0s
     0     0   48.98077    0   24   30.00000   48.98077  63.3%     -    0s
     0     0   48.98077    0   24   30.00000   48.98077  63.3%     -    0s
     0     0   48.65385    0   24   30.00000   48.65385  62.2%     -    0s
     0     0   48.65385    0   24   30.00000   48.65385  62.2%     -    0s
     0     2   48.65385    0   24   30.00000   48.65385  62.2%     -    0s

Cutting planes:
  Gomory: 4
  Cover: 10
  MIR: 3
  Inf proof: 17
  Zero half: 4
  Mod-K: 2

Explored 2031 nodes (63702 simplex iterations) in 0.49 seconds (0.41 work units)
Thread count was 16 (of 16 available processors)

Solution count 4: 30 23 20 11 

Optimal solution found (tolerance 1.00e-04)
Best objective 3.000000000000e+01, best bound 3.000000000000e+01, gap 0.0000%

Wrote result file '/root/bgw/data/results/2026_03_24_00_36_38_set_set_set_s010_g007_max.sol'

